$rem
jobtype               OPT
geom_opt_max_cycles   500
max_scf_cycles        250
EXCHANGE              B97-D3
BASIS                 6-31G**
PRINT_GENERAL_BASIS   TRUE
SCF_GUESS             CORE
SCF_CONVERGENCE       6
SCF_ALGORITHM         rca_diis
SCF_GUESS_ALWAYS      FALSE
XC_GRID               1

QM_MM_INTERFACE       zeolite
force_field           charmm27
user_connect          true
symmetry              off
sym_ignore            true
print_input           false
qmmm_print            false
qm_mm                 false
!mem_total             3000
molden_format         true
!geom_opt_coords        0
geom_opt_tol_energy   800
geom_opt_tol_gradient 5000
geom_opt_print        2
!UNRESTRICTED          true
!MODEL_SYSTEM_MULT     1
$end

$qm_atoms
23 24 35 36 37 39 40 42 43 45 48 49 50 51 52 53 55 58 59 60 61 62 63 64 65 66 67 68 69 84 85 87 88 92 93 94 95 99 100 101 102 106 107 108 109 113 114 115 116 117 118 119 120 121 122 123 126 128 129 130 131 132 133 134
$end

$comment
$end


$force_field_params
NumAtomTypes 999
AtomType  -100  0.191  2.0900  -0.0680  
AtomType  -101  -0.000  1.9924  -0.0700  
AtomType  -102  0.000  1.9924  -0.0700  
AtomType  -103  -0.008  1.9924  -0.0700  
AtomType  -104  -0.019  1.9924  -0.0700  
AtomType  -105  -0.022  1.9924  -0.0700  
AtomType  -106  -0.107  1.9924  -0.0700  
AtomType  -107  -0.108  1.9924  -0.0700  
AtomType  -108  -0.110  1.9924  -0.0700  
AtomType  -109  -0.113  1.9924  -0.0700  
AtomType  -110  -0.115  1.9924  -0.0700  
AtomType  -111  -0.118  1.9924  -0.0700  
AtomType  -112  -0.120  1.9924  -0.0700  
AtomType  -113  0.120  1.9924  -0.0700  
AtomType  -114  -0.122  1.9924  -0.0700  
AtomType  -115  -0.133  1.9924  -0.0700  
AtomType  -116  -0.137  1.9924  -0.0700  
AtomType  -117  -0.178  1.9924  -0.0700  
AtomType  -118  -0.190  1.9924  -0.0700  
AtomType  -119  0.222  1.9924  -0.0700  
AtomType  -120  -0.249  1.9924  -0.0700  
AtomType  -121  -0.253  1.9924  -0.0700  
AtomType  -122  0.281  1.9924  -0.0700  
AtomType  -123  0.938  1.9924  -0.0700  
AtomType  -124  -1.279  1.9924  -0.0700  
AtomType  -131  0.026  1.9924  -0.0700  
AtomType  -132  -0.028  1.9924  -0.0700  
AtomType  -141  0.119  1.8600  -0.0990  
AtomType  -142  0.352  1.8600  -0.0990  
AtomType  -151  -0.101  2.0500  -0.0780  
AtomType  -152  -0.146  2.0500  -0.0780  
AtomType  -153  -0.264  2.0500  -0.0780  
AtomType  -154  -0.265  2.0500  -0.0780  
AtomType  -161  0.169  2.0100  -0.0360  
AtomType  -201  0.090  1.3400  -0.0450  
AtomType  -211  0.090  1.3400  -0.0240  
AtomType  -221  0.298  0.2245  -0.0460  
AtomType  -231  0.240  0.2245  -0.0460  
AtomType  -241  0.115  1.3582  -0.0300  
AtomType  -242  0.127  1.3582  -0.0300  
AtomType  -243  0.136  1.3582  -0.0300  
AtomType  -244  0.210  1.3582  -0.0300  
AtomType  -245  0.226  1.3582  -0.0300  
AtomType  -301  1.322  1.8500  -0.2000  
AtomType  -311  -0.492  1.8500  -0.2000  
AtomType  -401  -0.657  1.7000  -0.1200  
AtomType  -411  -0.389  1.6500  -0.1000  
AtomType  -421  -0.264  1.6500  -0.1000  
AtomType  -501  1.308  2.1500  -0.5850  
AtomType  -601  -0.388  2.0000  -0.4500  

Bond  -101  -112  305.00  1.3750  
Bond  -101  -116  305.00  1.3750  
Bond  -102  -112  305.00  1.3750  
Bond  -102  -116  305.00  1.3750  
Bond  -103  -109  305.00  1.3750  
Bond  -103  -153  230.00  1.4900  
Bond  -104  -109  305.00  1.3750  
Bond  -104  -154  230.00  1.4900  
Bond  -105  -101  305.00  1.3750  
Bond  -105  -102  305.00  1.3750  
Bond  -105  -112  305.00  1.3750  
Bond  -105  -132  305.00  1.3750  
Bond  -106  -241  340.00  1.0800  
Bond  -107  -124  305.00  1.3750  
Bond  -107  -241  340.00  1.0800  
Bond  -108  -108  305.00  1.3750  
Bond  -108  -112  305.00  1.3750  
Bond  -108  -241  340.00  1.0800  
Bond  -109  -103  305.00  1.3750  
Bond  -109  -104  305.00  1.3750  
Bond  -109  -241  340.00  1.0800  
Bond  -110  -106  305.00  1.3750  
Bond  -110  -110  305.00  1.3750  
Bond  -111  -110  305.00  1.3750  
Bond  -111  -122  305.00  1.3750  
Bond  -111  -241  340.00  1.0800  
Bond  -112  -105  305.00  1.3750  
Bond  -112  -108  305.00  1.3750  
Bond  -112  -241  340.00  1.0800  
Bond  -113  -114  305.00  1.3750  
Bond  -113  -161  230.00  1.4900  
Bond  -114  -106  305.00  1.3750  
Bond  -114  -113  305.00  1.3750  
Bond  -114  -241  340.00  1.0800  
Bond  -115  -132  305.00  1.3750  
Bond  -115  -421  340.00  1.3800  
Bond  -116  -132  305.00  1.3750  
Bond  -116  -241  340.00  1.0800  
Bond  -117  -121  305.00  1.3750  
Bond  -118  -117  305.00  1.3750  
Bond  -118  -120  305.00  1.3750  
Bond  -118  -242  340.00  1.0800  
Bond  -119  -107  305.00  1.3750  
Bond  -119  -411  230.00  1.3820  
Bond  -120  -243  340.00  1.0800  
Bond  -121  -141  300.00  1.3600  
Bond  -122  -100  365.00  1.4500  
Bond  -122  -111  305.00  1.3750  
Bond  -123  -124  305.00  1.3750  
Bond  -123  -301  300.00  1.3820  
Bond  -124  -107  305.00  1.3750  
Bond  -124  -245  340.00  1.0800  
Bond  -131  -104  305.00  1.3750  
Bond  -132  -105  305.00  1.3750  
Bond  -132  -115  305.00  1.3750  
Bond  -132  -116  305.00  1.3750  
Bond  -132  -131  300.00  1.4900  
Bond  -132  -132  300.00  1.4900  
Bond  -142  -120  300.00  1.3600  
Bond  -142  -141  360.00  1.3850  
Bond  -142  -601  280.00  1.7500  
Bond  -151  -211  322.00  1.1110  
Bond  -152  -100  383.00  1.5040  
Bond  -152  -211  322.00  1.1110  
Bond  -153  -211  322.00  1.1110  
Bond  -154  -211  322.00  1.1110  
Bond  -161  -201  307.00  1.1000  
Bond  -211  -151  322.00  1.1110  
Bond  -241  -106  340.00  1.0800  
Bond  -241  -107  340.00  1.0800  
Bond  -241  -110  340.00  1.0800  
Bond  -241  -114  340.00  1.0800  
Bond  -242  -117  340.00  1.0800  
Bond  -244  -121  340.00  1.0800  
Bond  -301  -100  470.00  1.2830  
Bond  -301  -231  455.00  1.0000  
Bond  -311  -141  330.00  1.4000  
Bond  -311  -161  400.00  1.4780  
Bond  -311  -221  450.00  1.0180  
Bond  -411  -151  360.00  1.4150  
Bond  -421  -501  190.00  1.6500  
Bond  -501  -401  500.00  1.5100  
Bond  -601  -161  200.19  1.8095  

Angle  -100  -152  -211  42.00  111.50  
Angle  -101  -105  -112  40.00  120.00  
Angle  -101  -112  -108  40.00  120.00  
Angle  -101  -112  -241  30.00  120.00  
Angle  -101  -116  -132  40.00  120.00  
Angle  -101  -116  -241  30.00  120.00  
Angle  -102  -105  -132  40.00  120.00  
Angle  -102  -112  -241  30.00  120.00  
Angle  -102  -116  -132  40.00  120.00  
Angle  -102  -116  -241  30.00  120.00  
Angle  -103  -109  -104  40.00  120.00  
Angle  -103  -109  -241  30.00  120.00  
Angle  -103  -153  -211  49.30  107.50  
Angle  -104  -109  -103  40.00  120.00  
Angle  -104  -109  -241  30.00  120.00  
Angle  -104  -131  -104  40.00  120.00  
Angle  -104  -154  -211  49.30  107.50  
Angle  -105  -101  -112  40.00  120.00  
Angle  -105  -101  -116  40.00  120.00  
Angle  -105  -102  -112  40.00  120.00  
Angle  -105  -102  -116  40.00  120.00  
Angle  -105  -112  -108  40.00  120.00  
Angle  -105  -112  -241  30.00  120.00  
Angle  -105  -132  -115  40.00  120.00  
Angle  -105  -132  -132  40.00  120.00  
Angle  -106  -110  -106  40.00  120.00  
Angle  -107  -119  -107  40.00  120.00  
Angle  -107  -119  -411  110.00  120.00  
Angle  -107  -124  -245  30.00  120.00  
Angle  -108  -108  -112  40.00  120.00  
Angle  -108  -108  -241  30.00  120.00  
Angle  -108  -112  -102  40.00  120.00  
Angle  -108  -112  -105  40.00  120.00  
Angle  -108  -112  -241  30.00  120.00  
Angle  -109  -103  -109  40.00  120.00  
Angle  -109  -103  -153  45.80  120.00  
Angle  -109  -104  -154  45.80  120.00  
Angle  -110  -106  -114  40.00  120.00  
Angle  -110  -106  -241  30.00  120.00  
Angle  -110  -110  -110  40.00  120.00  
Angle  -110  -111  -122  40.00  120.00  
Angle  -110  -111  -241  30.00  120.00  
Angle  -111  -110  -110  40.00  120.00  
Angle  -111  -110  -241  30.00  120.00  
Angle  -111  -122  -100  36.00  120.00  
Angle  -111  -122  -111  40.00  120.00  
Angle  -112  -102  -116  40.00  120.00  
Angle  -112  -105  -102  40.00  120.00  
Angle  -112  -105  -132  40.00  120.00  
Angle  -112  -108  -108  40.00  120.00  
Angle  -112  -108  -241  30.00  120.00  
Angle  -113  -114  -106  40.00  120.00  
Angle  -113  -161  -201  50.00  112.00  
Angle  -113  -161  -311  72.50  113.34  
Angle  -113  -161  -601  55.86  106.64  
Angle  -114  -106  -110  40.00  120.00  
Angle  -114  -106  -241  30.00  120.00  
Angle  -114  -113  -114  40.00  120.00  
Angle  -114  -113  -161  45.80  120.00  
Angle  -115  -132  -116  40.00  120.00  
Angle  -115  -132  -131  40.00  120.00  
Angle  -115  -132  -132  40.00  120.00  
Angle  -115  -421  -501  90.00  120.00  
Angle  -116  -101  -112  40.00  120.00  
Angle  -116  -132  -115  40.00  120.00  
Angle  -116  -132  -131  40.00  120.00  
Angle  -117  -121  -141  50.00  120.00  
Angle  -118  -117  -121  40.00  120.00  
Angle  -118  -117  -242  30.00  120.00  
Angle  -118  -120  -142  50.00  120.00  
Angle  -118  -120  -243  30.00  120.00  
Angle  -119  -107  -124  40.00  120.00  
Angle  -119  -107  -241  30.00  120.00  
Angle  -119  -411  -151  65.00  108.00  
Angle  -120  -118  -117  40.00  120.00  
Angle  -120  -142  -141  50.00  120.00  
Angle  -122  -111  -110  40.00  120.00  
Angle  -122  -111  -241  30.00  120.00  
Angle  -123  -124  -107  40.00  120.00  
Angle  -123  -124  -245  30.00  120.00  
Angle  -123  -301  -100  67.00  123.60  
Angle  -123  -301  -231  47.00  120.00  
Angle  -124  -107  -119  40.00  120.00  
Angle  -124  -107  -241  30.00  120.00  
Angle  -124  -123  -124  40.00  120.00  
Angle  -124  -123  -301  39.00  121.20  
Angle  -131  -104  -109  40.00  120.00  
Angle  -131  -104  -154  45.80  120.00  
Angle  -132  -105  -101  40.00  120.00  
Angle  -132  -105  -112  40.00  120.00  
Angle  -132  -115  -132  40.00  120.00  
Angle  -132  -115  -421  75.00  120.00  
Angle  -132  -116  -241  30.00  120.00  
Angle  -132  -131  -104  40.00  120.00  
Angle  -132  -132  -105  40.00  120.00  
Angle  -132  -132  -115  40.00  120.00  
Angle  -142  -120  -243  30.00  120.00  
Angle  -142  -141  -121  50.00  120.00  
Angle  -142  -141  -311  100.00  109.30  
Angle  -142  -601  -161  46.00  97.00  
Angle  -152  -100  -122  48.44  127.34  
Angle  -152  -100  -301  55.35  142.24  
Angle  -161  -311  -141  60.00  106.90  
Angle  -161  -311  -221  43.00  112.00  
Angle  -211  -151  -211  35.50  108.40  
Angle  -211  -151  -411  45.90  108.89  
Angle  -211  -152  -211  35.50  108.40  
Angle  -211  -153  -211  35.50  108.40  
Angle  -211  -154  -211  35.50  108.40  
Angle  -221  -311  -141  41.00  114.50  
Angle  -231  -301  -100  38.00  118.80  
Angle  -241  -106  -110  30.00  120.00  
Angle  -241  -106  -114  30.00  120.00  
Angle  -241  -110  -106  30.00  120.00  
Angle  -241  -110  -110  30.00  120.00  
Angle  -241  -110  -111  30.00  120.00  
Angle  -241  -114  -106  30.00  120.00  
Angle  -241  -114  -113  30.00  120.00  
Angle  -242  -117  -121  30.00  120.00  
Angle  -242  -118  -117  30.00  120.00  
Angle  -242  -118  -120  30.00  120.00  
Angle  -244  -121  -117  30.00  120.00  
Angle  -244  -121  -141  30.00  120.00  
Angle  -301  -100  -122  40.00  125.60  
Angle  -311  -141  -121  35.00  130.70  
Angle  -311  -161  -201  54.00  109.00  
Angle  -401  -501  -401  104.00  120.00  
Angle  -411  -119  -107  110.00  120.00  
Angle  -411  -151  -211  45.90  108.89  
Angle  -421  -501  -401  98.90  107.50  
Angle  -421  -501  -421  80.00  104.30  
Angle  -601  -142  -120  40.00  120.00  
Angle  -601  -142  -141  100.00  109.30  
Angle  -601  -161  -201  42.84  107.95  
Angle  -601  -161  -311  75.70  112.51  

Torsion  -100  -122  -111  -110  3.1000  2  180.00  
Torsion  -100  -122  -111  -241  2.4000  2  180.00  
Torsion  -101  -105  -112  -108  3.1000  2  180.00  
Torsion  -101  -105  -112  -241  4.2000  2  180.00  
Torsion  -101  -116  -132  -115  3.1000  2  180.00  
Torsion  -101  -116  -132  -131  3.1000  2  180.00  
Torsion  -102  -105  -132  -115  3.1000  2  180.00  
Torsion  -102  -105  -132  -132  3.1000  2  180.00  
Torsion  -103  -109  -104  -131  3.1000  2  180.00  
Torsion  -103  -109  -104  -154  3.1000  2  180.00  
Torsion  -104  -109  -103  -109  3.1000  2  180.00  
Torsion  -104  -109  -103  -153  3.1000  2  180.00  
Torsion  -104  -131  -104  -109  3.1000  2  180.00  
Torsion  -104  -131  -104  -154  3.1000  2  180.00  
Torsion  -105  -101  -112  -108  3.1000  2  180.00  
Torsion  -105  -101  -112  -241  4.2000  2  180.00  
Torsion  -105  -101  -116  -132  3.1000  2  180.00  
Torsion  -105  -101  -116  -241  4.2000  2  180.00  
Torsion  -105  -102  -112  -108  3.1000  2  180.00  
Torsion  -105  -102  -112  -241  4.2000  2  180.00  
Torsion  -105  -102  -116  -132  3.1000  2  180.00  
Torsion  -105  -102  -116  -241  4.2000  2  180.00  
Torsion  -105  -112  -108  -108  3.1000  2  180.00  
Torsion  -105  -112  -108  -241  4.2000  2  180.00  
Torsion  -105  -132  -115  -132  3.1000  2  180.00  
Torsion  -105  -132  -115  -421  3.1000  2  180.00  
Torsion  -105  -132  -132  -105  0.8900  2  180.00  
Torsion  -105  -132  -132  -115  0.8900  2  180.00  
Torsion  -106  -110  -106  -114  3.1000  2  180.00  
Torsion  -106  -110  -106  -241  4.2000  2  180.00  
Torsion  -106  -114  -113  -114  3.1000  2  180.00  
Torsion  -106  -114  -113  -161  3.1000  2  180.00  
Torsion  -107  -119  -107  -124  3.1000  2  180.00  
Torsion  -107  -119  -107  -241  4.2000  2  180.00  
Torsion  -107  -119  -411  -151  1.5800  2  180.00  0.2000  4  180.00  
Torsion  -108  -108  -112  -101  3.1000  2  180.00  
Torsion  -108  -108  -112  -102  3.1000  2  180.00  
Torsion  -108  -108  -112  -105  3.1000  2  180.00  
Torsion  -108  -108  -112  -241  4.2000  2  180.00  
Torsion  -108  -112  -105  -102  3.1000  2  180.00  
Torsion  -108  -112  -105  -132  3.1000  2  180.00  
Torsion  -109  -103  -109  -104  3.1000  2  180.00  
Torsion  -109  -103  -109  -241  4.2000  2  180.00  
Torsion  -109  -103  -153  -211  0.0020  6  0.00  
Torsion  -109  -104  -154  -211  0.0020  6  0.00  
Torsion  -110  -111  -122  -100  3.1000  2  180.00  
Torsion  -110  -111  -122  -111  3.1000  2  180.00  
Torsion  -111  -110  -110  -110  3.1000  2  180.00  
Torsion  -111  -110  -110  -241  4.2000  2  180.00  
Torsion  -111  -122  -100  -152  0.7500  2  180.00  0.1900  4  0.00  
Torsion  -111  -122  -100  -301  1.6000  2  180.00  
Torsion  -111  -122  -111  -110  3.1000  2  180.00  
Torsion  -111  -122  -111  -241  4.2000  2  180.00  
Torsion  -112  -101  -116  -132  3.1000  2  180.00  
Torsion  -112  -101  -116  -241  4.2000  2  180.00  
Torsion  -112  -102  -116  -132  3.1000  2  180.00  
Torsion  -112  -102  -116  -241  4.2000  2  180.00  
Torsion  -112  -105  -101  -112  3.1000  2  180.00  
Torsion  -112  -105  -101  -116  3.1000  2  180.00  
Torsion  -112  -105  -102  -112  3.1000  2  180.00  
Torsion  -112  -105  -102  -116  3.1000  2  180.00  
Torsion  -112  -105  -132  -115  3.1000  2  180.00  
Torsion  -112  -105  -132  -132  3.1000  2  180.00  
Torsion  -112  -108  -108  -112  3.1000  2  180.00  
Torsion  -112  -108  -108  -241  4.2000  2  180.00  
Torsion  -113  -114  -106  -110  3.1000  2  180.00  
Torsion  -113  -114  -106  -241  4.2000  2  180.00  
Torsion  -114  -113  -114  -106  3.1000  2  180.00  
Torsion  -114  -113  -114  -241  4.2000  2  180.00  
Torsion  -114  -113  -161  -201  0.0020  6  0.00  
Torsion  -114  -113  -161  -311  1.0000  2  180.00  
Torsion  -114  -113  -161  -601  0.1198  2  180.00  
Torsion  -115  -132  -105  -101  3.1000  2  180.00  
Torsion  -115  -132  -105  -112  3.1000  2  180.00  
Torsion  -115  -132  -116  -102  3.1000  2  180.00  
Torsion  -115  -132  -116  -241  4.2000  2  180.00  
Torsion  -115  -132  -131  -104  0.8900  2  180.00  
Torsion  -115  -132  -132  -105  0.8900  2  180.00  
Torsion  -115  -132  -132  -115  0.8900  2  180.00  
Torsion  -115  -421  -501  -401  0.1000  3  0.00  
Torsion  -115  -421  -501  -421  0.9500  2  0.00  0.5000  3  0.00  
Torsion  -116  -101  -112  -108  3.1000  2  180.00  
Torsion  -116  -101  -112  -241  4.2000  2  180.00  
Torsion  -116  -102  -112  -108  3.1000  2  180.00  
Torsion  -116  -102  -112  -241  4.2000  2  180.00  
Torsion  -116  -132  -115  -132  3.1000  2  180.00  
Torsion  -116  -132  -115  -421  3.1000  2  180.00  
Torsion  -116  -132  -131  -104  0.8900  2  180.00  
Torsion  -117  -118  -120  -142  3.0000  2  180.00  
Torsion  -117  -118  -120  -243  4.2000  2  180.00  
Torsion  -117  -121  -141  -142  3.0000  2  180.00  
Torsion  -117  -121  -141  -311  6.0000  2  180.00  
Torsion  -118  -117  -121  -141  3.0000  2  180.00  
Torsion  -118  -117  -121  -244  4.2000  2  180.00  
Torsion  -119  -107  -124  -123  3.1000  2  180.00  
Torsion  -119  -107  -124  -245  4.2000  2  180.00  
Torsion  -119  -411  -151  -211  0.0850  3  0.00  
Torsion  -120  -118  -117  -121  3.1000  2  180.00  
Torsion  -120  -118  -117  -242  4.2000  2  180.00  
Torsion  -120  -142  -141  -121  3.0000  2  180.00  
Torsion  -120  -142  -141  -311  6.0000  2  180.00  
Torsion  -120  -142  -601  -161  1.4500  1  0.00  
Torsion  -122  -111  -110  -110  3.1000  2  180.00  
Torsion  -122  -111  -110  -241  4.2000  2  180.00  
Torsion  -123  -124  -107  -119  3.1000  2  180.00  
Torsion  -123  -124  -107  -241  4.2000  2  180.00  
Torsion  -123  -301  -100  -122  7.0000  2  180.00  
Torsion  -123  -301  -100  -152  4.0628  2  180.00  
Torsion  -124  -123  -124  -107  3.1000  2  180.00  
Torsion  -124  -123  -124  -245  4.2000  2  180.00  
Torsion  -124  -123  -301  -100  0.6000  2  180.00  
Torsion  -124  -123  -301  -231  0.0000  2  180.00  
Torsion  -131  -104  -109  -103  3.1000  2  180.00  
Torsion  -131  -104  -109  -241  4.2000  2  180.00  
Torsion  -131  -104  -154  -211  0.0020  6  0.00  
Torsion  -131  -132  -115  -132  3.1000  2  180.00  
Torsion  -131  -132  -115  -421  1.0000  2  180.00  
Torsion  -131  -132  -116  -102  3.1000  2  180.00  
Torsion  -131  -132  -116  -241  4.2000  2  180.00  
Torsion  -132  -105  -101  -112  3.1000  2  180.00  
Torsion  -132  -105  -101  -116  3.1000  2  180.00  
Torsion  -132  -105  -102  -112  3.1000  2  180.00  
Torsion  -132  -105  -102  -116  3.1000  2  180.00  
Torsion  -132  -105  -112  -108  3.1000  2  180.00  
Torsion  -132  -105  -112  -241  4.2000  2  180.00  
Torsion  -132  -115  -132  -116  3.1000  2  180.00  
Torsion  -132  -115  -132  -131  3.1000  2  180.00  
Torsion  -132  -115  -421  -501  1.4000  2  180.00  
Torsion  -132  -131  -104  -109  3.1000  2  180.00  
Torsion  -132  -131  -104  -154  1.0000  2  180.00  
Torsion  -132  -132  -105  -101  3.1000  2  180.00  
Torsion  -132  -132  -105  -112  3.1000  2  180.00  
Torsion  -132  -132  -115  -132  3.1000  2  180.00  
Torsion  -132  -132  -115  -421  1.0000  2  180.00  
Torsion  -141  -142  -120  -118  3.0000  2  180.00  
Torsion  -141  -142  -120  -243  3.0000  2  180.00  
Torsion  -141  -142  -601  -161  1.4500  1  0.00  
Torsion  -141  -311  -161  -113  1.4500  3  180.00  
Torsion  -141  -311  -161  -201  0.0000  3  0.00  
Torsion  -141  -311  -161  -601  2.0366  3  0.00  
Torsion  -142  -601  -161  -113  1.3000  1  180.00  1.0000  2  0.00  0.2000  3  0.00  
Torsion  -142  -601  -161  -201  0.6188  3  180.00  
Torsion  -142  -601  -161  -311  0.2223  1  0.00  0.9446  3  0.00  
Torsion  -153  -103  -109  -104  3.1000  2  180.00  
Torsion  -153  -103  -109  -241  2.4000  2  180.00  
Torsion  -154  -104  -109  -103  3.1000  2  180.00  
Torsion  -154  -104  -109  -241  2.4000  2  180.00  
Torsion  -161  -113  -114  -106  3.1000  2  180.00  
Torsion  -161  -113  -114  -241  2.4000  2  180.00  
Torsion  -161  -311  -141  -121  4.0000  2  180.00  
Torsion  -161  -311  -141  -142  1.9600  3  0.00  
Torsion  -211  -152  -100  -122  0.6022  3  180.00  
Torsion  -211  -152  -100  -301  0.3860  3  180.00  
Torsion  -221  -311  -141  -121  0.0000  3  0.00  
Torsion  -221  -311  -141  -142  0.0000  3  0.00  
Torsion  -221  -311  -161  -113  1.7700  1  180.00  0.7000  3  0.00  
Torsion  -221  -311  -161  -201  0.0000  3  0.00  
Torsion  -221  -311  -161  -601  4.7884  1  180.00  2.4246  3  180.00  
Torsion  -231  -301  -100  -122  5.0000  2  180.00  
Torsion  -231  -301  -100  -152  5.0000  2  180.00  
Torsion  -241  -107  -124  -123  4.2000  2  180.00  
Torsion  -241  -107  -124  -245  2.4000  2  180.00  
Torsion  -241  -108  -108  -112  4.2000  2  180.00  
Torsion  -241  -108  -108  -241  2.4000  2  180.00  
Torsion  -241  -108  -112  -101  4.2000  2  180.00  
Torsion  -241  -108  -112  -102  4.2000  2  180.00  
Torsion  -241  -108  -112  -105  4.2000  2  180.00  
Torsion  -241  -108  -112  -241  2.4000  2  180.00  
Torsion  -241  -109  -103  -109  4.2000  2  180.00  
Torsion  -241  -109  -103  -153  2.4000  2  180.00  
Torsion  -241  -109  -104  -131  4.2000  2  180.00  
Torsion  -241  -109  -104  -154  2.4000  2  180.00  
Torsion  -241  -110  -106  -114  4.2000  2  180.00  
Torsion  -241  -110  -106  -241  2.4000  2  180.00  
Torsion  -241  -110  -110  -110  4.2000  2  180.00  
Torsion  -241  -110  -110  -241  2.4000  2  180.00  
Torsion  -241  -111  -110  -110  4.2000  2  180.00  
Torsion  -241  -111  -110  -241  2.4000  2  180.00  
Torsion  -241  -111  -122  -100  2.4000  2  180.00  
Torsion  -241  -111  -122  -111  4.2000  2  180.00  
Torsion  -241  -112  -105  -102  4.2000  2  180.00  
Torsion  -241  -112  -105  -132  4.2000  2  180.00  
Torsion  -241  -112  -108  -108  4.2000  2  180.00  
Torsion  -241  -112  -108  -241  2.4000  2  180.00  
Torsion  -241  -114  -106  -110  4.2000  2  180.00  
Torsion  -241  -114  -106  -241  2.4000  2  180.00  
Torsion  -241  -114  -113  -114  4.2000  2  180.00  
Torsion  -241  -114  -113  -161  2.4000  2  180.00  
Torsion  -241  -116  -132  -115  4.2000  2  180.00  
Torsion  -241  -116  -132  -131  4.2000  2  180.00  
Torsion  -242  -117  -121  -141  3.0000  2  180.00  
Torsion  -242  -117  -121  -244  2.4000  2  180.00  
Torsion  -242  -118  -117  -121  4.2000  2  180.00  
Torsion  -242  -118  -117  -242  2.4000  2  180.00  
Torsion  -242  -118  -120  -142  3.0000  2  180.00  
Torsion  -242  -118  -120  -243  2.4000  2  180.00  
Torsion  -244  -121  -141  -142  3.0000  2  180.00  
Torsion  -244  -121  -141  -311  0.0000  2  180.00  
Torsion  -245  -124  -107  -119  4.2000  2  180.00  
Torsion  -245  -124  -107  -241  2.4000  2  180.00  
Torsion  -301  -123  -124  -107  3.1000  2  180.00  
Torsion  -301  -123  -124  -245  3.4000  2  180.00  
Torsion  -411  -119  -107  -124  3.1000  2  180.00  
Torsion  -411  -119  -107  -241  2.4000  2  180.00  
Torsion  -421  -115  -132  -116  3.1000  2  180.00  
Torsion  -421  -115  -132  -131  1.0000  2  180.00  
Torsion  -601  -142  -120  -118  4.5000  2  180.00  
Torsion  -601  -142  -120  -243  2.4000  2  180.00  
Torsion  -601  -142  -141  -121  0.0000  2  180.00  
Torsion  -601  -142  -141  -311  0.0000  2  180.00  

$end

$molecule
0 1
C    -14.0554370149 4.5575793373   0.7857299870   -108     6     70    2     0     
C    -14.0756290624 3.5616610348   1.7990729220   -108     1     3     71    0     
C    -13.4568457343 2.3389608893   1.5948499889   -112     4     2     72    0     
C    -12.7863109841 2.0515741491   0.3711077901   -105     5     7     3     0     
C    -12.7665392830 3.0620296295   -0.6609455761  -102     10    6     4     0     
C    -13.4135961935 4.3082094273   -0.4174653683  -112     73    5     1     0     
C    -12.1450011336 0.7906037654   0.1198926639   -132     8     4     11    0     
C    -11.4458262870 0.6368664098   -1.0736512296  -115     9     24    7     0     
C    -11.4720073667 1.5859827742   -2.1378732632  -132     21    10    8     0     
C    -12.1319223163 2.7847851165   -1.9085332342  -116     74    9     5     0     
C    -12.3016099890 -0.3912035672  1.0179280595   -132     7     12    16    0     
C    -13.6106453245 -0.9401480374  1.2843882908   -105     17    11    13    0     
C    -13.7309769274 -2.0566508200  2.1900913133   -101     12    20    14    0     
C    -12.5619509918 -2.5740442912  2.8122702048   -116     13    15    75    0     
C    -11.2973860996 -2.1252400781  2.4705307696   -132     16    14    22    0     
C    -11.1851663720 -1.0841574096  1.5008480053   -115     11    23    15    0     
C    -14.7900029090 -0.5052517171  0.6037446435   -112     76    18    12    0     
C    -16.0122741147 -1.1219712731  0.8216425078   -108     77    17    19    0     
C    -16.1311117106 -2.1949965308  1.7428493644   -108     18    78    20    0     
C    -15.0083211822 -2.6485429303  2.4135512094   -112     19    13    79    0     
C    -10.9006240891 1.1881564741   -3.4644619168  -131     29    25    9     0     
C    -10.0842810913 -2.6680875312  3.1481316083   -131     15    34    30    0     
O    -9.9257649782  -0.7670056804  1.0263472667   -421     35    16    0     0     
O    -10.9109700043 -0.6046509645  -1.3685441893  -421     8     35    0     0     
C    -9.7066812909  1.7759941036   -3.9459967704  -104     26    21    44    0     
C    -9.1549176389  1.3328031366   -5.1564680302  -109     27    80    25    0     
C    -9.7366421322  0.2913777343   -5.8961386551  -103     46    28    26    0     
C    -10.9333041916 -0.2611860660  -5.4198437662  -109     81    27    29    0     
C    -11.5355079600 0.1711211714   -4.2253948058  -104     28    47    21    0     
C    -9.5144320067  -1.9120174718  4.1976685773   -104     22    38    31    0     
C    -8.3710131978  -2.4019653643  4.8527128048   -109     30    32    82    0     
C    -7.8210464162  -3.6507119591  4.5148305065   -103     33    31    54    0     
C    -8.4526060894  -4.4115984931  3.5182958237   -109     34    83    32    0     
C    -9.5646921799  -3.9359231730  2.8030453193   -104     41    22    33    0     
P    -9.5618451467  -1.1588301996  -0.5824036169  -501     24    37    36    23    
O    -9.5027109298  -2.6309866802  -0.8554367399  -401     35    0     0     0     
O    -8.3797074148  -0.2328861176  -0.8629695464  -401     35    0     0     0     
C    -10.1864609206 -0.6289195010  4.6381041009   -154     86    30    56    57    
C    -6.8122826728  -4.2301011049  -0.4782316524  -114     58    52    85    0     
H    -5.3091817022  -7.7141981645  0.4316925405   -241     87    0     0     0     
C    -10.1707531259 -4.7480105970  1.6775155978   -154     89    90    91    34    
C    -5.0033922978  -0.3337539327  -4.0595798355  -118     94    114   119   0     
C    -5.9089426394  -0.8475195869  1.1390502367   -123     49    68    62    0     
C    -8.9716279999  2.8155482479   -3.1303143260  -154     25    111   112   110   
C    -8.6756530537  2.3433899166   0.7176338283   -111     128   99    100   0     
C    -9.0572393790  -0.2393480624  -7.1396527085  -153     103   105   104   27    
C    -12.8305275451 -0.4831611035  -3.7811829248  -154     125   29    124   127   
H    -2.0161028362  -4.1143134323  2.1442014651   -211     65    0     0     0     
C    -5.4005317972  -1.0228926806  -0.1728989269  -124     133   93    43    0     
H    -5.6841651196  -7.0953877102  -1.9496336141  -241     59    0     0     0     
H    -5.9303504592  -6.1008348044  2.2486394457   -241     55    0     0     0     
H    -7.2435398132  -3.2628369939  -0.7117878439  -241     39    0     0     0     
H    -8.3001786055  -0.9567245058  -3.3502121585  -244     120   0     0     0     
C    -6.5664434633  -4.1755848183  5.1820385655   -153     98    32    97    96    
C    -6.0771701191  -5.8333806434  1.2004284350   -110     87    85    51    0     
H    -11.1760024714 -0.8460623455  5.0702183270   -211     38    0     0     0     
H    -9.5915362893  -0.0997760696  5.3951066048   -211     38    0     0     0     
C    -6.4866162880  -5.1361589291  -1.4968250587  -113     116   59    39    0     
C    -5.9444628601  -6.3913835770  -1.1559041770  -114     50    58    87    0     
C    -3.8463705815  -2.6944953093  0.6469177378   -119     93    63    61    0     
C    -4.3757430209  -2.5545747871  1.9468129917   -107     60    62    106   0     
C    -5.4101504037  -1.6440929950  2.1892761196   -124     43    61    122   0     
O    -2.8636462095  -3.5664306931  0.2961507080   -411     60    65    0     0     
C    -6.6700784224  0.7952435603   3.5951699847   -152     102   132   130   131   
C    -2.4739574163  -4.5655129991  1.2479988896   -151     63    123   107   48    
H    -10.8155023767 3.5948145839   3.7195418014   -241     108   0     0     0     
H    -11.2862111941 4.4227295322   1.4117820977   -241     109   0     0     0     
N    -6.9600834630  0.0967691920   1.2514146239   -301     84    43    102   0     
H    -9.9110959658  3.6091524841   -0.4988979652  -241     99    0     0     0     
H    -14.5531497068 5.5135077184   0.9530215570   -241     1     0     0     0     
H    -14.5863941960 3.7585265382   2.7424759460   -241     2     0     0     0     
H    -13.4816661939 1.5695798081   2.3647320998   -241     3     0     0     0     
H    -13.3999739650 5.0622641722   -1.2068354672  -241     6     0     0     0     
H    -12.2016856458 3.5172250608   -2.7148970587  -241     10    0     0     0     
H    -12.6634524971 -3.3819075023  3.5393155933   -241     14    0     0     0     
H    -14.7194382952 0.2972977458   -0.1275935163  -241     17    0     0     0     
H    -16.8902684347 -0.7870130323  0.2671232567   -241     18    0     0     0     
H    -17.0993472633 -2.6706449906  1.9045574255   -241     19    0     0     0     
H    -15.0782500576 -3.4916443302  3.1039285505   -241     20    0     0     0     
H    -8.2274052645  1.7848420544   -5.5134742506  -241     26    0     0     0     
H    -11.4115644833 -1.0637530928  -5.9864745142  -241     28    0     0     0     
H    -7.9308288141  -1.8232871331  5.6696760946   -241     31    0     0     0     
H    -8.0500761673  -5.3930044727  3.2624150713   -241     33    0     0     0     
H    -7.5847967206  0.0727844578   0.3505962430   -231     68    0     0     0     
C    -6.6207893039  -4.5880596220  0.8609558612   -106     39    55    134   0     